language Essence 1.3

letting blksize_delta be
        function(1 --> 7, 2 --> 9, 3 --> 7, 4 --> 7, 5 --> 7, 6 --> 7, 7 --> 7, 8 --> 7, 9 --> 7, 10 --> 7, 11 --> 7,
                 12 --> 7, 13 --> 7, 14 --> 7, 15 --> 7, 16 --> 7, 17 --> 8, 18 --> 7, 19 --> 9, 20 --> 7, 21 --> 7,
                 22 --> 7, 23 --> 7, 24 --> 7, 25 --> 7, 26 --> 7, 27 --> 7, 28 --> 7, 29 --> 7, 30 --> 7, 31 --> 7,
                 32 --> 7, 33 --> 7, 34 --> 7)
letting maxcars be
        function(1 --> 10, 2 --> 7, 3 --> 7, 4 --> 9, 5 --> 7, 6 --> 7, 7 --> 7, 8 --> 8, 9 --> 7, 10 --> 7, 11 --> 7,
                 12 --> 8, 13 --> 7, 14 --> 7, 15 --> 10, 16 --> 7, 17 --> 7, 18 --> 7, 19 --> 7, 20 --> 7, 21 --> 7,
                 22 --> 7, 23 --> 7, 24 --> 7, 25 --> 7, 26 --> 7, 27 --> 7, 28 --> 7, 29 --> 7, 30 --> 7, 31 --> 7,
                 32 --> 7, 33 --> 7, 34 --> 7)
letting n_cars be 197
letting n_classes be 34
letting n_options be 34
letting quantity be
        function(1 --> 5, 2 --> 5, 3 --> 5, 4 --> 5, 5 --> 5, 6 --> 5, 7 --> 21, 8 --> 5, 9 --> 12, 10 --> 5, 11 --> 5,
                 12 --> 5, 13 --> 5, 14 --> 5, 15 --> 5, 16 --> 5, 17 --> 5, 18 --> 5, 19 --> 5, 20 --> 5, 21 --> 9,
                 22 --> 5, 23 --> 5, 24 --> 5, 25 --> 5, 26 --> 5, 27 --> 5, 28 --> 5, 29 --> 5, 30 --> 5, 31 --> 5,
                 32 --> 5, 33 --> 5, 34 --> 5)
letting usage be
        relation((1, 11), (1, 14), (1, 20), (1, 29), (2, 2), (2, 5), (2, 6), (2, 16), (2, 26), (3, 3), (3, 10), (3, 34),
                 (4, 23), (4, 33), (5, 21), (6, 34), (7, 12), (8, 4), (8, 17), (9, 12), (9, 18), (9, 21), (9, 32),
                 (10, 5), (10, 9), (10, 11), (10, 12), (11, 14), (11, 19), (12, 2), (12, 8), (12, 11), (12, 26),
                 (13, 9), (13, 10), (13, 12), (13, 14), (13, 21), (13, 22), (13, 29), (13, 31), (14, 5), (14, 17),
                 (14, 22), (14, 24), (14, 27), (15, 11), (15, 13), (15, 14), (15, 15), (15, 21), (15, 27), (15, 33),
                 (15, 34), (16, 15), (16, 29), (16, 31), (17, 4), (17, 7), (17, 28), (17, 29), (18, 19), (19, 4),
                 (19, 9), (19, 19), (19, 26), (19, 28), (19, 31), (20, 26), (20, 30), (21, 10), (21, 24), (21, 29),
                 (22, 5), (22, 13), (23, 27), (24, 4), (24, 15), (24, 19), (24, 24), (25, 7), (25, 20), (25, 25),
                 (26, 2), (26, 4), (26, 28), (27, 6), (27, 8), (27, 14), (27, 23), (28, 10), (28, 24), (28, 25),
                 (28, 29), (29, 34), (30, 9), (30, 11), (31, 25), (31, 27), (32, 21), (33, 25), (33, 31), (33, 32),
                 (34, 1), (34, 4), (34, 5), (34, 7))
$ Visualisation for usage
$  1 11
$  1 14
$  1 20
$  1 29
$  2  2
$  2  5
$  2  6
$  2 16
$  2 26
$  3  3
$  3 10
$  3 34
$  4 23
$  4 33
$  5 21
$  6 34
$  7 12
$  8  4
$  8 17
$  9 12
$  9 18
$  9 21
$  9 32
$ 10  5
$ 10  9
$ 10 11
$ 10 12
$ 11 14
$ 11 19
$ 12  2
$ 12  8
$ 12 11
$ 12 26
$ 13  9
$ 13 10
$ 13 12
$ 13 14
$ 13 21
$ 13 22
$ 13 29
$ 13 31
$ 14  5
$ 14 17
$ 14 22
$ 14 24
$ 14 27
$ 15 11
$ 15 13
$ 15 14
$ 15 15
$ 15 21
$ 15 27
$ 15 33
$ 15 34
$ 16 15
$ 16 29
$ 16 31
$ 17  4
$ 17  7
$ 17 28
$ 17 29
$ 18 19
$ 19  4
$ 19  9
$ 19 19
$ 19 26
$ 19 28
$ 19 31
$ 20 26
$ 20 30
$ 21 10
$ 21 24
$ 21 29
$ 22  5
$ 22 13
$ 23 27
$ 24  4
$ 24 15
$ 24 19
$ 24 24
$ 25  7
$ 25 20
$ 25 25
$ 26  2
$ 26  4
$ 26 28
$ 27  6
$ 27  8
$ 27 14
$ 27 23
$ 28 10
$ 28 24
$ 28 25
$ 28 29
$ 29 34
$ 30  9
$ 30 11
$ 31 25
$ 31 27
$ 32 21
$ 33 25
$ 33 31
$ 33 32
$ 34  1
$ 34  4
$ 34  5
$ 34  7

